
;this file is automatically generated: Wed Feb 26 14:38:42 CST 2020

;declarations generated

(declare-fun class11_Class11IntAttr2 ( Int) Int)
(declare-fun oclExcludes ( Int Int) Bool)
(declare-fun class11_Class11IntAttr3 ( Int) Int)
(declare-fun Cardinality ( Int) Int)
(declare-fun oclSelect ( Int Bool) Int)
(declare-fun type_fb84cc90_284b_4252_a626_a80964ec5a35_Class13 ( Int) Bool)
(declare-fun type_fb84cc90_284b_4252_a626_a80964ec5a35_Class11 ( Int) Bool)
(declare-fun Enum0 ( Int) Int)
(declare-fun Enum1 ( Int) Int)
(declare-fun container_ ( Int) Int)
(declare-fun oclIncludes ( Int Int) Bool)
(declare-fun obj_094c4f20_4c0a_41fd_b076_37c6d31abdda ( Int) Int)
(declare-fun ObjAt ( Int Int) Int)

;formula(s) generated
(assert (! (forall ((c1_2 Int)(c1_1 Int)) (=> (and (and ( type_fb84cc90_284b_4252_a626_a80964ec5a35_Class11 c1_1 )  ( type_fb84cc90_284b_4252_a626_a80964ec5a35_Class13 c1_1 ) ) (and ( type_fb84cc90_284b_4252_a626_a80964ec5a35_Class11 c1_2 )  ( type_fb84cc90_284b_4252_a626_a80964ec5a35_Class13 c1_2 ) )) (> ( class11_Class11IntAttr2 ( obj_094c4f20_4c0a_41fd_b076_37c6d31abdda c1_1 )  )  ( class11_Class11IntAttr3 ( obj_094c4f20_4c0a_41fd_b076_37c6d31abdda c1_2 )  ) ))):named l0))
(assert (exists ((o Int)) (and ( type_fb84cc90_284b_4252_a626_a80964ec5a35_Class11 ( obj_094c4f20_4c0a_41fd_b076_37c6d31abdda o )  )  ( type_fb84cc90_284b_4252_a626_a80964ec5a35_Class13 ( obj_094c4f20_4c0a_41fd_b076_37c6d31abdda o )  ) )))

 ;end of formula 